NAME /Users/henri/Research/solvers/instances/idol-instances/robust/collection/cbp_Subramanyam_et_al_2020/CapBud_N25_13/models/uncertain_technology_matrix/
ROWS
 N  OBJ
 L  capacity
 L  c_4495
 L  c_4496
 L  c_4497
 L  c_4498
 L  c_4499
 L  c_4500
 L  c_4501
 L  c_4502
 L  c_4503
 L  c_4504
 L  c_4505
 L  c_4506
 L  c_4507
 L  c_4508
 L  c_4509
 L  c_4510
 L  c_4511
 L  c_4512
 L  c_4513
 L  c_4514
 L  c_4515
 L  c_4516
 L  c_4517
 L  c_4518
 L  c_4519
COLUMNS
    MARKER    'MARKER'                 'INTORG'
    x_0        OBJ        -5.67302
    x_0        c_4495     1
    x_0        capacity   1.1346
    x_1        OBJ        -7.99259
    x_1        c_4496     1
    x_1        capacity   1.59852
    x_2        OBJ        -1.89375
    x_2        c_4497     1
    x_2        capacity   0.378751
    x_3        OBJ        -3.45026
    x_3        c_4498     1
    x_3        capacity   0.690051
    x_4        OBJ        -1.34262
    x_4        c_4499     1
    x_4        capacity   0.268525
    x_5        OBJ        -6.2135
    x_5        c_4500     1
    x_5        capacity   1.2427
    x_6        OBJ        -2.07525
    x_6        c_4501     1
    x_6        capacity   0.415051
    x_7        OBJ        -7.62536
    x_7        c_4502     1
    x_7        capacity   1.52507
    x_8        OBJ        -6.84172
    x_8        c_4503     1
    x_8        capacity   1.36834
    x_9        OBJ        -7.43385
    x_9        c_4504     1
    x_9        capacity   1.48677
    x_10       OBJ        -5.89702
    x_10       c_4505     1
    x_10       capacity   1.1794
    x_11       OBJ        -0.0599225
    x_11       c_4506     1
    x_11       capacity   0.0119845
    x_12       OBJ        -1.13655
    x_12       c_4507     1
    x_12       capacity   0.22731
    x_13       OBJ        -2.58441
    x_13       c_4508     1
    x_13       capacity   0.516882
    x_14       OBJ        -7.58613
    x_14       c_4509     1
    x_14       capacity   1.51723
    x_15       OBJ        -6.82153
    x_15       c_4510     1
    x_15       capacity   1.36431
    x_16       OBJ        -1.61993
    x_16       c_4511     1
    x_16       capacity   0.323986
    x_17       OBJ        -5.18125
    x_17       c_4512     1
    x_17       capacity   1.03625
    x_18       OBJ        -0.193102
    x_18       c_4513     1
    x_18       capacity   0.0386204
    x_19       OBJ        -4.26063
    x_19       c_4514     1
    x_19       capacity   0.852126
    x_20       OBJ        -7.69372
    x_20       c_4515     1
    x_20       capacity   1.53874
    x_21       OBJ        -1.40066
    x_21       c_4516     1
    x_21       capacity   0.280133
    x_22       OBJ        -5.50046
    x_22       c_4517     1
    x_22       capacity   1.10009
    x_23       OBJ        -7.58697
    x_23       c_4518     1
    x_23       capacity   1.51739
    x_24       OBJ        -6.93745
    x_24       c_4519     1
    x_24       capacity   1.38749
    y_0        OBJ        -4.53842
    y_0        c_4495     1
    y_0        capacity   1.1346
    y_1        OBJ        -6.39407
    y_1        c_4496     1
    y_1        capacity   1.59852
    y_2        OBJ        -1.515
    y_2        c_4497     1
    y_2        capacity   0.378751
    y_3        OBJ        -2.7602
    y_3        c_4498     1
    y_3        capacity   0.690051
    y_4        OBJ        -1.0741
    y_4        c_4499     1
    y_4        capacity   0.268525
    y_5        OBJ        -4.9708
    y_5        c_4500     1
    y_5        capacity   1.2427
    y_6        OBJ        -1.6602
    y_6        c_4501     1
    y_6        capacity   0.415051
    y_7        OBJ        -6.10029
    y_7        c_4502     1
    y_7        capacity   1.52507
    y_8        OBJ        -5.47338
    y_8        c_4503     1
    y_8        capacity   1.36834
    y_9        OBJ        -5.94708
    y_9        c_4504     1
    y_9        capacity   1.48677
    y_10       OBJ        -4.71762
    y_10       c_4505     1
    y_10       capacity   1.1794
    y_11       OBJ        -0.047938
    y_11       c_4506     1
    y_11       capacity   0.0119845
    y_12       OBJ        -0.909238
    y_12       c_4507     1
    y_12       capacity   0.22731
    y_13       OBJ        -2.06753
    y_13       c_4508     1
    y_13       capacity   0.516882
    y_14       OBJ        -6.0689
    y_14       c_4509     1
    y_14       capacity   1.51723
    y_15       OBJ        -5.45722
    y_15       c_4510     1
    y_15       capacity   1.36431
    y_16       OBJ        -1.29595
    y_16       c_4511     1
    y_16       capacity   0.323986
    y_17       OBJ        -4.145
    y_17       c_4512     1
    y_17       capacity   1.03625
    y_18       OBJ        -0.154482
    y_18       c_4513     1
    y_18       capacity   0.0386204
    y_19       OBJ        -3.4085
    y_19       c_4514     1
    y_19       capacity   0.852126
    y_20       OBJ        -6.15497
    y_20       c_4515     1
    y_20       capacity   1.53874
    y_21       OBJ        -1.12053
    y_21       c_4516     1
    y_21       capacity   0.280133
    y_22       OBJ        -4.40037
    y_22       c_4517     1
    y_22       capacity   1.10009
    y_23       OBJ        -6.06957
    y_23       c_4518     1
    y_23       capacity   1.51739
    y_24       OBJ        -5.54996
    y_24       c_4519     1
    y_24       capacity   1.38749
    MARKER    'MARKER'                 'INTEND'
RHS
    RHS       capacity   57.5008
    RHS       c_4495     1
    RHS       c_4496     1
    RHS       c_4497     1
    RHS       c_4498     1
    RHS       c_4499     1
    RHS       c_4500     1
    RHS       c_4501     1
    RHS       c_4502     1
    RHS       c_4503     1
    RHS       c_4504     1
    RHS       c_4505     1
    RHS       c_4506     1
    RHS       c_4507     1
    RHS       c_4508     1
    RHS       c_4509     1
    RHS       c_4510     1
    RHS       c_4511     1
    RHS       c_4512     1
    RHS       c_4513     1
    RHS       c_4514     1
    RHS       c_4515     1
    RHS       c_4516     1
    RHS       c_4517     1
    RHS       c_4518     1
    RHS       c_4519     1
BOUNDS
 LI BND       x_0        0
 UI BND       x_0        1
 LI BND       x_1        0
 UI BND       x_1        1
 LI BND       x_2        0
 UI BND       x_2        1
 LI BND       x_3        0
 UI BND       x_3        1
 LI BND       x_4        0
 UI BND       x_4        1
 LI BND       x_5        0
 UI BND       x_5        1
 LI BND       x_6        0
 UI BND       x_6        1
 LI BND       x_7        0
 UI BND       x_7        1
 LI BND       x_8        0
 UI BND       x_8        1
 LI BND       x_9        0
 UI BND       x_9        1
 LI BND       x_10       0
 UI BND       x_10       1
 LI BND       x_11       0
 UI BND       x_11       1
 LI BND       x_12       0
 UI BND       x_12       1
 LI BND       x_13       0
 UI BND       x_13       1
 LI BND       x_14       0
 UI BND       x_14       1
 LI BND       x_15       0
 UI BND       x_15       1
 LI BND       x_16       0
 UI BND       x_16       1
 LI BND       x_17       0
 UI BND       x_17       1
 LI BND       x_18       0
 UI BND       x_18       1
 LI BND       x_19       0
 UI BND       x_19       1
 LI BND       x_20       0
 UI BND       x_20       1
 LI BND       x_21       0
 UI BND       x_21       1
 LI BND       x_22       0
 UI BND       x_22       1
 LI BND       x_23       0
 UI BND       x_23       1
 LI BND       x_24       0
 UI BND       x_24       1
 LI BND       y_0        0
 UI BND       y_0        1
 LI BND       y_1        0
 UI BND       y_1        1
 LI BND       y_2        0
 UI BND       y_2        1
 LI BND       y_3        0
 UI BND       y_3        1
 LI BND       y_4        0
 UI BND       y_4        1
 LI BND       y_5        0
 UI BND       y_5        1
 LI BND       y_6        0
 UI BND       y_6        1
 LI BND       y_7        0
 UI BND       y_7        1
 LI BND       y_8        0
 UI BND       y_8        1
 LI BND       y_9        0
 UI BND       y_9        1
 LI BND       y_10       0
 UI BND       y_10       1
 LI BND       y_11       0
 UI BND       y_11       1
 LI BND       y_12       0
 UI BND       y_12       1
 LI BND       y_13       0
 UI BND       y_13       1
 LI BND       y_14       0
 UI BND       y_14       1
 LI BND       y_15       0
 UI BND       y_15       1
 LI BND       y_16       0
 UI BND       y_16       1
 LI BND       y_17       0
 UI BND       y_17       1
 LI BND       y_18       0
 UI BND       y_18       1
 LI BND       y_19       0
 UI BND       y_19       1
 LI BND       y_20       0
 UI BND       y_20       1
 LI BND       y_21       0
 UI BND       y_21       1
 LI BND       y_22       0
 UI BND       y_22       1
 LI BND       y_23       0
 UI BND       y_23       1
 LI BND       y_24       0
 UI BND       y_24       1
ENDATA
